27	3

10	10	10	

0	0	0	0	3	2	3	4	
1	3	5	2	3	6	7	8	
1	5	4	3	2	7	8	
2	5	2	2	2	5	7	
3	4	1	4	2	10	12	
3	5	5	4	2	10	11	
3	3	5	2	2	9	10	
2	2	4	4	2	10	11	
3	3	2	2	1	13	
3	3	2	4	2	15	16	
4	3	3	2	1	13	
3	4	1	4	2	13	14	
1	1	4	4	1	17	
4	2	2	2	1	17	
2	5	5	4	2	19	20	
3	1	5	4	1	18	
7	4	5	4	2	23	24	
2	3	2	3	1	21	
4	5	3	3	1	21	
2	2	4	6	1	22	
2	1	6	2	1	26	
1	3	2	1	1	25	
7	1	0	4	1	26	
8	2	2	1	1	26	
2	0	1	3	1	27	
3	2	2	2	1	27	
0	0	0	0	0	
